** Этап 0: проверка контакта с удалением элементов (mode=disp)
** сгенерировано tools/mksmoke.py --E 90500.0 --K 653.0 --clear 0.0 --dt0 0.01 --dtmax 0.02 --dtmin 1e-07 --e0 0.007 --epsf 0.1 --gap 2.0 --h 2.0 --kpen 1000000.0 --kstick 100000.0 --maxinc 20000 --mode disp --mu 0.1 --n 0.082 --nphi 12 --nr 4 --nu 0.35 --nz 5 --outfreq 10 --ri 5.5 --ro 6.3 --rseg_in 4.5 --sector 22.5 --seg_over 0.5 --uf 0.03 --ur 1.5
*Node
1, 5.500000000, 0.000000000, 0.000000000
2, 5.500000000, 0.000000000, 0.200000000
3, 5.500000000, 0.000000000, 0.400000000
4, 5.500000000, 0.000000000, 0.600000000
5, 5.500000000, 0.000000000, 0.800000000
6, 5.500000000, 0.000000000, 1.000000000
7, 5.497055231, 0.179954956, 0.000000000
8, 5.497055231, 0.179954956, 0.200000000
9, 5.497055231, 0.179954956, 0.400000000
10, 5.497055231, 0.179954956, 0.600000000
11, 5.497055231, 0.179954956, 0.800000000
12, 5.497055231, 0.179954956, 1.000000000
13, 5.488224078, 0.359717211, 0.000000000
14, 5.488224078, 0.359717211, 0.200000000
15, 5.488224078, 0.359717211, 0.400000000
16, 5.488224078, 0.359717211, 0.600000000
17, 5.488224078, 0.359717211, 0.800000000
18, 5.488224078, 0.359717211, 1.000000000
19, 5.473515997, 0.539094272, 0.000000000
20, 5.473515997, 0.539094272, 0.200000000
21, 5.473515997, 0.539094272, 0.400000000
22, 5.473515997, 0.539094272, 0.600000000
23, 5.473515997, 0.539094272, 0.800000000
24, 5.473515997, 0.539094272, 1.000000000
25, 5.452946738, 0.717894057, 0.000000000
26, 5.452946738, 0.717894057, 0.200000000
27, 5.452946738, 0.717894057, 0.400000000
28, 5.452946738, 0.717894057, 0.600000000
29, 5.452946738, 0.717894057, 0.800000000
30, 5.452946738, 0.717894057, 1.000000000
31, 5.426538326, 0.895925104, 0.000000000
32, 5.426538326, 0.895925104, 0.200000000
33, 5.426538326, 0.895925104, 0.400000000
34, 5.426538326, 0.895925104, 0.600000000
35, 5.426538326, 0.895925104, 0.800000000
36, 5.426538326, 0.895925104, 1.000000000
37, 5.394319042, 1.072996771, 0.000000000
38, 5.394319042, 1.072996771, 0.200000000
39, 5.394319042, 1.072996771, 0.400000000
40, 5.394319042, 1.072996771, 0.600000000
41, 5.394319042, 1.072996771, 0.800000000
42, 5.394319042, 1.072996771, 1.000000000
43, 5.356323386, 1.248919447, 0.000000000
44, 5.356323386, 1.248919447, 0.200000000
45, 5.356323386, 1.248919447, 0.400000000
46, 5.356323386, 1.248919447, 0.600000000
47, 5.356323386, 1.248919447, 0.800000000
48, 5.356323386, 1.248919447, 1.000000000
49, 5.312592045, 1.423504748, 0.000000000
50, 5.312592045, 1.423504748, 0.200000000
51, 5.312592045, 1.423504748, 0.400000000
52, 5.312592045, 1.423504748, 0.600000000
53, 5.312592045, 1.423504748, 0.800000000
54, 5.312592045, 1.423504748, 1.000000000
55, 5.263171847, 1.596565725, 0.000000000
56, 5.263171847, 1.596565725, 0.200000000
57, 5.263171847, 1.596565725, 0.400000000
58, 5.263171847, 1.596565725, 0.600000000
59, 5.263171847, 1.596565725, 0.800000000
60, 5.263171847, 1.596565725, 1.000000000
61, 5.208115712, 1.767917059, 0.000000000
62, 5.208115712, 1.767917059, 0.200000000
63, 5.208115712, 1.767917059, 0.400000000
64, 5.208115712, 1.767917059, 0.600000000
65, 5.208115712, 1.767917059, 0.800000000
66, 5.208115712, 1.767917059, 1.000000000
67, 5.147482597, 1.937375264, 0.000000000
68, 5.147482597, 1.937375264, 0.200000000
69, 5.147482597, 1.937375264, 0.400000000
70, 5.147482597, 1.937375264, 0.600000000
71, 5.147482597, 1.937375264, 0.800000000
72, 5.147482597, 1.937375264, 1.000000000
73, 5.081337429, 2.104758878, 0.000000000
74, 5.081337429, 2.104758878, 0.200000000
75, 5.081337429, 2.104758878, 0.400000000
76, 5.081337429, 2.104758878, 0.600000000
77, 5.081337429, 2.104758878, 0.800000000
78, 5.081337429, 2.104758878, 1.000000000
79, 5.700000000, 0.000000000, 0.000000000
80, 5.700000000, 0.000000000, 0.200000000
81, 5.700000000, 0.000000000, 0.400000000
82, 5.700000000, 0.000000000, 0.600000000
83, 5.700000000, 0.000000000, 0.800000000
84, 5.700000000, 0.000000000, 1.000000000
85, 5.696948149, 0.186498772, 0.000000000
86, 5.696948149, 0.186498772, 0.200000000
87, 5.696948149, 0.186498772, 0.400000000
88, 5.696948149, 0.186498772, 0.600000000
89, 5.696948149, 0.186498772, 0.800000000
90, 5.696948149, 0.186498772, 1.000000000
91, 5.687795862, 0.372797837, 0.000000000
92, 5.687795862, 0.372797837, 0.200000000
93, 5.687795862, 0.372797837, 0.400000000
94, 5.687795862, 0.372797837, 0.600000000
95, 5.687795862, 0.372797837, 0.800000000
96, 5.687795862, 0.372797837, 1.000000000
97, 5.672552942, 0.558697700, 0.000000000
98, 5.672552942, 0.558697700, 0.200000000
99, 5.672552942, 0.558697700, 0.400000000
100, 5.672552942, 0.558697700, 0.600000000
101, 5.672552942, 0.558697700, 0.800000000
102, 5.672552942, 0.558697700, 1.000000000
103, 5.651235710, 0.743999296, 0.000000000
104, 5.651235710, 0.743999296, 0.200000000
105, 5.651235710, 0.743999296, 0.400000000
106, 5.651235710, 0.743999296, 0.600000000
107, 5.651235710, 0.743999296, 0.800000000
108, 5.651235710, 0.743999296, 1.000000000
109, 5.623866993, 0.928504198, 0.000000000
110, 5.623866993, 0.928504198, 0.200000000
111, 5.623866993, 0.928504198, 0.400000000
112, 5.623866993, 0.928504198, 0.600000000
113, 5.623866993, 0.928504198, 0.800000000
114, 5.623866993, 0.928504198, 1.000000000
115, 5.590476098, 1.112014835, 0.000000000
116, 5.590476098, 1.112014835, 0.200000000
117, 5.590476098, 1.112014835, 0.400000000
118, 5.590476098, 1.112014835, 0.600000000
119, 5.590476098, 1.112014835, 0.800000000
120, 5.590476098, 1.112014835, 1.000000000
121, 5.551098782, 1.294334699, 0.000000000
122, 5.551098782, 1.294334699, 0.200000000
123, 5.551098782, 1.294334699, 0.400000000
124, 5.551098782, 1.294334699, 0.600000000
125, 5.551098782, 1.294334699, 0.800000000
126, 5.551098782, 1.294334699, 1.000000000
127, 5.505777210, 1.475268557, 0.000000000
128, 5.505777210, 1.475268557, 0.200000000
129, 5.505777210, 1.475268557, 0.400000000
130, 5.505777210, 1.475268557, 0.600000000
131, 5.505777210, 1.475268557, 0.800000000
132, 5.505777210, 1.475268557, 1.000000000
133, 5.454559914, 1.654622660, 0.000000000
134, 5.454559914, 1.654622660, 0.200000000
135, 5.454559914, 1.654622660, 0.400000000
136, 5.454559914, 1.654622660, 0.600000000
137, 5.454559914, 1.654622660, 0.800000000
138, 5.454559914, 1.654622660, 1.000000000
139, 5.397501738, 1.832204952, 0.000000000
140, 5.397501738, 1.832204952, 0.200000000
141, 5.397501738, 1.832204952, 0.400000000
142, 5.397501738, 1.832204952, 0.600000000
143, 5.397501738, 1.832204952, 0.800000000
144, 5.397501738, 1.832204952, 1.000000000
145, 5.334663783, 2.007825273, 0.000000000
146, 5.334663783, 2.007825273, 0.200000000
147, 5.334663783, 2.007825273, 0.400000000
148, 5.334663783, 2.007825273, 0.600000000
149, 5.334663783, 2.007825273, 0.800000000
150, 5.334663783, 2.007825273, 1.000000000
151, 5.266113335, 2.181295564, 0.000000000
152, 5.266113335, 2.181295564, 0.200000000
153, 5.266113335, 2.181295564, 0.400000000
154, 5.266113335, 2.181295564, 0.600000000
155, 5.266113335, 2.181295564, 0.800000000
156, 5.266113335, 2.181295564, 1.000000000
157, 5.900000000, 0.000000000, 0.000000000
158, 5.900000000, 0.000000000, 0.200000000
159, 5.900000000, 0.000000000, 0.400000000
160, 5.900000000, 0.000000000, 0.600000000
161, 5.900000000, 0.000000000, 0.800000000
162, 5.900000000, 0.000000000, 1.000000000
163, 5.896841066, 0.193042589, 0.000000000
164, 5.896841066, 0.193042589, 0.200000000
165, 5.896841066, 0.193042589, 0.400000000
166, 5.896841066, 0.193042589, 0.600000000
167, 5.896841066, 0.193042589, 0.800000000
168, 5.896841066, 0.193042589, 1.000000000
169, 5.887367647, 0.385878462, 0.000000000
170, 5.887367647, 0.385878462, 0.200000000
171, 5.887367647, 0.385878462, 0.400000000
172, 5.887367647, 0.385878462, 0.600000000
173, 5.887367647, 0.385878462, 0.800000000
174, 5.887367647, 0.385878462, 1.000000000
175, 5.871589887, 0.578301128, 0.000000000
176, 5.871589887, 0.578301128, 0.200000000
177, 5.871589887, 0.578301128, 0.400000000
178, 5.871589887, 0.578301128, 0.600000000
179, 5.871589887, 0.578301128, 0.800000000
180, 5.871589887, 0.578301128, 1.000000000
181, 5.849524682, 0.770104534, 0.000000000
182, 5.849524682, 0.770104534, 0.200000000
183, 5.849524682, 0.770104534, 0.400000000
184, 5.849524682, 0.770104534, 0.600000000
185, 5.849524682, 0.770104534, 0.800000000
186, 5.849524682, 0.770104534, 1.000000000
187, 5.821195659, 0.961083293, 0.000000000
188, 5.821195659, 0.961083293, 0.200000000
189, 5.821195659, 0.961083293, 0.400000000
190, 5.821195659, 0.961083293, 0.600000000
191, 5.821195659, 0.961083293, 0.800000000
192, 5.821195659, 0.961083293, 1.000000000
193, 5.786633154, 1.151032900, 0.000000000
194, 5.786633154, 1.151032900, 0.200000000
195, 5.786633154, 1.151032900, 0.400000000
196, 5.786633154, 1.151032900, 0.600000000
197, 5.786633154, 1.151032900, 0.800000000
198, 5.786633154, 1.151032900, 1.000000000
199, 5.745874178, 1.339749952, 0.000000000
200, 5.745874178, 1.339749952, 0.200000000
201, 5.745874178, 1.339749952, 0.400000000
202, 5.745874178, 1.339749952, 0.600000000
203, 5.745874178, 1.339749952, 0.800000000
204, 5.745874178, 1.339749952, 1.000000000
205, 5.698962375, 1.527032366, 0.000000000
206, 5.698962375, 1.527032366, 0.200000000
207, 5.698962375, 1.527032366, 0.400000000
208, 5.698962375, 1.527032366, 0.600000000
209, 5.698962375, 1.527032366, 0.800000000
210, 5.698962375, 1.527032366, 1.000000000
211, 5.645947981, 1.712679596, 0.000000000
212, 5.645947981, 1.712679596, 0.200000000
213, 5.645947981, 1.712679596, 0.400000000
214, 5.645947981, 1.712679596, 0.600000000
215, 5.645947981, 1.712679596, 0.800000000
216, 5.645947981, 1.712679596, 1.000000000
217, 5.586887764, 1.896492845, 0.000000000
218, 5.586887764, 1.896492845, 0.200000000
219, 5.586887764, 1.896492845, 0.400000000
220, 5.586887764, 1.896492845, 0.600000000
221, 5.586887764, 1.896492845, 0.800000000
222, 5.586887764, 1.896492845, 1.000000000
223, 5.521844968, 2.078275283, 0.000000000
224, 5.521844968, 2.078275283, 0.200000000
225, 5.521844968, 2.078275283, 0.400000000
226, 5.521844968, 2.078275283, 0.600000000
227, 5.521844968, 2.078275283, 0.800000000
228, 5.521844968, 2.078275283, 1.000000000
229, 5.450889242, 2.257832251, 0.000000000
230, 5.450889242, 2.257832251, 0.200000000
231, 5.450889242, 2.257832251, 0.400000000
232, 5.450889242, 2.257832251, 0.600000000
233, 5.450889242, 2.257832251, 0.800000000
234, 5.450889242, 2.257832251, 1.000000000
235, 6.100000000, 0.000000000, 0.000000000
236, 6.100000000, 0.000000000, 0.200000000
237, 6.100000000, 0.000000000, 0.400000000
238, 6.100000000, 0.000000000, 0.600000000
239, 6.100000000, 0.000000000, 0.800000000
240, 6.100000000, 0.000000000, 1.000000000
241, 6.096733984, 0.199586405, 0.000000000
242, 6.096733984, 0.199586405, 0.200000000
243, 6.096733984, 0.199586405, 0.400000000
244, 6.096733984, 0.199586405, 0.600000000
245, 6.096733984, 0.199586405, 0.800000000
246, 6.096733984, 0.199586405, 1.000000000
247, 6.086939432, 0.398959088, 0.000000000
248, 6.086939432, 0.398959088, 0.200000000
249, 6.086939432, 0.398959088, 0.400000000
250, 6.086939432, 0.398959088, 0.600000000
251, 6.086939432, 0.398959088, 0.800000000
252, 6.086939432, 0.398959088, 1.000000000
253, 6.070626833, 0.597904556, 0.000000000
254, 6.070626833, 0.597904556, 0.200000000
255, 6.070626833, 0.597904556, 0.400000000
256, 6.070626833, 0.597904556, 0.600000000
257, 6.070626833, 0.597904556, 0.800000000
258, 6.070626833, 0.597904556, 1.000000000
259, 6.047813654, 0.796209773, 0.000000000
260, 6.047813654, 0.796209773, 0.200000000
261, 6.047813654, 0.796209773, 0.400000000
262, 6.047813654, 0.796209773, 0.600000000
263, 6.047813654, 0.796209773, 0.800000000
264, 6.047813654, 0.796209773, 1.000000000
265, 6.018524326, 0.993662388, 0.000000000
266, 6.018524326, 0.993662388, 0.200000000
267, 6.018524326, 0.993662388, 0.400000000
268, 6.018524326, 0.993662388, 0.600000000
269, 6.018524326, 0.993662388, 0.800000000
270, 6.018524326, 0.993662388, 1.000000000
271, 5.982790210, 1.190050964, 0.000000000
272, 5.982790210, 1.190050964, 0.200000000
273, 5.982790210, 1.190050964, 0.400000000
274, 5.982790210, 1.190050964, 0.600000000
275, 5.982790210, 1.190050964, 0.800000000
276, 5.982790210, 1.190050964, 1.000000000
277, 5.940649574, 1.385165205, 0.000000000
278, 5.940649574, 1.385165205, 0.200000000
279, 5.940649574, 1.385165205, 0.400000000
280, 5.940649574, 1.385165205, 0.600000000
281, 5.940649574, 1.385165205, 0.800000000
282, 5.940649574, 1.385165205, 1.000000000
283, 5.892147540, 1.578796175, 0.000000000
284, 5.892147540, 1.578796175, 0.200000000
285, 5.892147540, 1.578796175, 0.400000000
286, 5.892147540, 1.578796175, 0.600000000
287, 5.892147540, 1.578796175, 0.800000000
288, 5.892147540, 1.578796175, 1.000000000
289, 5.837336048, 1.770736531, 0.000000000
290, 5.837336048, 1.770736531, 0.200000000
291, 5.837336048, 1.770736531, 0.400000000
292, 5.837336048, 1.770736531, 0.600000000
293, 5.837336048, 1.770736531, 0.800000000
294, 5.837336048, 1.770736531, 1.000000000
295, 5.776273790, 1.960780738, 0.000000000
296, 5.776273790, 1.960780738, 0.200000000
297, 5.776273790, 1.960780738, 0.400000000
298, 5.776273790, 1.960780738, 0.600000000
299, 5.776273790, 1.960780738, 0.800000000
300, 5.776273790, 1.960780738, 1.000000000
301, 5.709026153, 2.148725292, 0.000000000
302, 5.709026153, 2.148725292, 0.200000000
303, 5.709026153, 2.148725292, 0.400000000
304, 5.709026153, 2.148725292, 0.600000000
305, 5.709026153, 2.148725292, 0.800000000
306, 5.709026153, 2.148725292, 1.000000000
307, 5.635665148, 2.334368937, 0.000000000
308, 5.635665148, 2.334368937, 0.200000000
309, 5.635665148, 2.334368937, 0.400000000
310, 5.635665148, 2.334368937, 0.600000000
311, 5.635665148, 2.334368937, 0.800000000
312, 5.635665148, 2.334368937, 1.000000000
313, 6.300000000, 0.000000000, 0.000000000
314, 6.300000000, 0.000000000, 0.200000000
315, 6.300000000, 0.000000000, 0.400000000
316, 6.300000000, 0.000000000, 0.600000000
317, 6.300000000, 0.000000000, 0.800000000
318, 6.300000000, 0.000000000, 1.000000000
319, 6.296626901, 0.206130222, 0.000000000
320, 6.296626901, 0.206130222, 0.200000000
321, 6.296626901, 0.206130222, 0.400000000
322, 6.296626901, 0.206130222, 0.600000000
323, 6.296626901, 0.206130222, 0.800000000
324, 6.296626901, 0.206130222, 1.000000000
325, 6.286511216, 0.412039714, 0.000000000
326, 6.286511216, 0.412039714, 0.200000000
327, 6.286511216, 0.412039714, 0.400000000
328, 6.286511216, 0.412039714, 0.600000000
329, 6.286511216, 0.412039714, 0.800000000
330, 6.286511216, 0.412039714, 1.000000000
331, 6.269663778, 0.617507984, 0.000000000
332, 6.269663778, 0.617507984, 0.200000000
333, 6.269663778, 0.617507984, 0.400000000
334, 6.269663778, 0.617507984, 0.600000000
335, 6.269663778, 0.617507984, 0.800000000
336, 6.269663778, 0.617507984, 1.000000000
337, 6.246102627, 0.822315011, 0.000000000
338, 6.246102627, 0.822315011, 0.200000000
339, 6.246102627, 0.822315011, 0.400000000
340, 6.246102627, 0.822315011, 0.600000000
341, 6.246102627, 0.822315011, 0.800000000
342, 6.246102627, 0.822315011, 1.000000000
343, 6.215852992, 1.026241482, 0.000000000
344, 6.215852992, 1.026241482, 0.200000000
345, 6.215852992, 1.026241482, 0.400000000
346, 6.215852992, 1.026241482, 0.600000000
347, 6.215852992, 1.026241482, 0.800000000
348, 6.215852992, 1.026241482, 1.000000000
349, 6.178947267, 1.229069029, 0.000000000
350, 6.178947267, 1.229069029, 0.200000000
351, 6.178947267, 1.229069029, 0.400000000
352, 6.178947267, 1.229069029, 0.600000000
353, 6.178947267, 1.229069029, 0.800000000
354, 6.178947267, 1.229069029, 1.000000000
355, 6.135424969, 1.430580457, 0.000000000
356, 6.135424969, 1.430580457, 0.200000000
357, 6.135424969, 1.430580457, 0.400000000
358, 6.135424969, 1.430580457, 0.600000000
359, 6.135424969, 1.430580457, 0.800000000
360, 6.135424969, 1.430580457, 1.000000000
361, 6.085332706, 1.630559984, 0.000000000
362, 6.085332706, 1.630559984, 0.200000000
363, 6.085332706, 1.630559984, 0.400000000
364, 6.085332706, 1.630559984, 0.600000000
365, 6.085332706, 1.630559984, 0.800000000
366, 6.085332706, 1.630559984, 1.000000000
367, 6.028724115, 1.828793467, 0.000000000
368, 6.028724115, 1.828793467, 0.200000000
369, 6.028724115, 1.828793467, 0.400000000
370, 6.028724115, 1.828793467, 0.600000000
371, 6.028724115, 1.828793467, 0.800000000
372, 6.028724115, 1.828793467, 1.000000000
373, 5.965659816, 2.025068631, 0.000000000
374, 5.965659816, 2.025068631, 0.200000000
375, 5.965659816, 2.025068631, 0.400000000
376, 5.965659816, 2.025068631, 0.600000000
377, 5.965659816, 2.025068631, 0.800000000
378, 5.965659816, 2.025068631, 1.000000000
379, 5.896207339, 2.219175302, 0.000000000
380, 5.896207339, 2.219175302, 0.200000000
381, 5.896207339, 2.219175302, 0.400000000
382, 5.896207339, 2.219175302, 0.600000000
383, 5.896207339, 2.219175302, 0.800000000
384, 5.896207339, 2.219175302, 1.000000000
385, 5.820441055, 2.410905624, 0.000000000
386, 5.820441055, 2.410905624, 0.200000000
387, 5.820441055, 2.410905624, 0.400000000
388, 5.820441055, 2.410905624, 0.600000000
389, 5.820441055, 2.410905624, 0.800000000
390, 5.820441055, 2.410905624, 1.000000000
*Element, Type=C3D4, Elset=RING
1, 1, 79, 85, 86
2, 1, 85, 7, 86
3, 1, 7, 8, 86
4, 1, 8, 2, 86
5, 1, 2, 80, 86
6, 1, 80, 79, 86
7, 2, 80, 86, 87
8, 2, 86, 8, 87
9, 2, 8, 9, 87
10, 2, 9, 3, 87
11, 2, 3, 81, 87
12, 2, 81, 80, 87
13, 3, 81, 87, 88
14, 3, 87, 9, 88
15, 3, 9, 10, 88
16, 3, 10, 4, 88
17, 3, 4, 82, 88
18, 3, 82, 81, 88
19, 4, 82, 88, 89
20, 4, 88, 10, 89
21, 4, 10, 11, 89
22, 4, 11, 5, 89
23, 4, 5, 83, 89
24, 4, 83, 82, 89
25, 5, 83, 89, 90
26, 5, 89, 11, 90
27, 5, 11, 12, 90
28, 5, 12, 6, 90
29, 5, 6, 84, 90
30, 5, 84, 83, 90
31, 7, 85, 91, 92
32, 7, 91, 13, 92
33, 7, 13, 14, 92
34, 7, 14, 8, 92
35, 7, 8, 86, 92
36, 7, 86, 85, 92
37, 8, 86, 92, 93
38, 8, 92, 14, 93
39, 8, 14, 15, 93
40, 8, 15, 9, 93
41, 8, 9, 87, 93
42, 8, 87, 86, 93
43, 9, 87, 93, 94
44, 9, 93, 15, 94
45, 9, 15, 16, 94
46, 9, 16, 10, 94
47, 9, 10, 88, 94
48, 9, 88, 87, 94
49, 10, 88, 94, 95
50, 10, 94, 16, 95
51, 10, 16, 17, 95
52, 10, 17, 11, 95
53, 10, 11, 89, 95
54, 10, 89, 88, 95
55, 11, 89, 95, 96
56, 11, 95, 17, 96
57, 11, 17, 18, 96
58, 11, 18, 12, 96
59, 11, 12, 90, 96
60, 11, 90, 89, 96
61, 13, 91, 97, 98
62, 13, 97, 19, 98
63, 13, 19, 20, 98
64, 13, 20, 14, 98
65, 13, 14, 92, 98
66, 13, 92, 91, 98
67, 14, 92, 98, 99
68, 14, 98, 20, 99
69, 14, 20, 21, 99
70, 14, 21, 15, 99
71, 14, 15, 93, 99
72, 14, 93, 92, 99
73, 15, 93, 99, 100
74, 15, 99, 21, 100
75, 15, 21, 22, 100
76, 15, 22, 16, 100
77, 15, 16, 94, 100
78, 15, 94, 93, 100
79, 16, 94, 100, 101
80, 16, 100, 22, 101
81, 16, 22, 23, 101
82, 16, 23, 17, 101
83, 16, 17, 95, 101
84, 16, 95, 94, 101
85, 17, 95, 101, 102
86, 17, 101, 23, 102
87, 17, 23, 24, 102
88, 17, 24, 18, 102
89, 17, 18, 96, 102
90, 17, 96, 95, 102
91, 19, 97, 103, 104
92, 19, 103, 25, 104
93, 19, 25, 26, 104
94, 19, 26, 20, 104
95, 19, 20, 98, 104
96, 19, 98, 97, 104
97, 20, 98, 104, 105
98, 20, 104, 26, 105
99, 20, 26, 27, 105
100, 20, 27, 21, 105
101, 20, 21, 99, 105
102, 20, 99, 98, 105
103, 21, 99, 105, 106
104, 21, 105, 27, 106
105, 21, 27, 28, 106
106, 21, 28, 22, 106
107, 21, 22, 100, 106
108, 21, 100, 99, 106
109, 22, 100, 106, 107
110, 22, 106, 28, 107
111, 22, 28, 29, 107
112, 22, 29, 23, 107
113, 22, 23, 101, 107
114, 22, 101, 100, 107
115, 23, 101, 107, 108
116, 23, 107, 29, 108
117, 23, 29, 30, 108
118, 23, 30, 24, 108
119, 23, 24, 102, 108
120, 23, 102, 101, 108
121, 25, 103, 109, 110
122, 25, 109, 31, 110
123, 25, 31, 32, 110
124, 25, 32, 26, 110
125, 25, 26, 104, 110
126, 25, 104, 103, 110
127, 26, 104, 110, 111
128, 26, 110, 32, 111
129, 26, 32, 33, 111
130, 26, 33, 27, 111
131, 26, 27, 105, 111
132, 26, 105, 104, 111
133, 27, 105, 111, 112
134, 27, 111, 33, 112
135, 27, 33, 34, 112
136, 27, 34, 28, 112
137, 27, 28, 106, 112
138, 27, 106, 105, 112
139, 28, 106, 112, 113
140, 28, 112, 34, 113
141, 28, 34, 35, 113
142, 28, 35, 29, 113
143, 28, 29, 107, 113
144, 28, 107, 106, 113
145, 29, 107, 113, 114
146, 29, 113, 35, 114
147, 29, 35, 36, 114
148, 29, 36, 30, 114
149, 29, 30, 108, 114
150, 29, 108, 107, 114
151, 31, 109, 115, 116
152, 31, 115, 37, 116
153, 31, 37, 38, 116
154, 31, 38, 32, 116
155, 31, 32, 110, 116
156, 31, 110, 109, 116
157, 32, 110, 116, 117
158, 32, 116, 38, 117
159, 32, 38, 39, 117
160, 32, 39, 33, 117
161, 32, 33, 111, 117
162, 32, 111, 110, 117
163, 33, 111, 117, 118
164, 33, 117, 39, 118
165, 33, 39, 40, 118
166, 33, 40, 34, 118
167, 33, 34, 112, 118
168, 33, 112, 111, 118
169, 34, 112, 118, 119
170, 34, 118, 40, 119
171, 34, 40, 41, 119
172, 34, 41, 35, 119
173, 34, 35, 113, 119
174, 34, 113, 112, 119
175, 35, 113, 119, 120
176, 35, 119, 41, 120
177, 35, 41, 42, 120
178, 35, 42, 36, 120
179, 35, 36, 114, 120
180, 35, 114, 113, 120
181, 37, 115, 121, 122
182, 37, 121, 43, 122
183, 37, 43, 44, 122
184, 37, 44, 38, 122
185, 37, 38, 116, 122
186, 37, 116, 115, 122
187, 38, 116, 122, 123
188, 38, 122, 44, 123
189, 38, 44, 45, 123
190, 38, 45, 39, 123
191, 38, 39, 117, 123
192, 38, 117, 116, 123
193, 39, 117, 123, 124
194, 39, 123, 45, 124
195, 39, 45, 46, 124
196, 39, 46, 40, 124
197, 39, 40, 118, 124
198, 39, 118, 117, 124
199, 40, 118, 124, 125
200, 40, 124, 46, 125
201, 40, 46, 47, 125
202, 40, 47, 41, 125
203, 40, 41, 119, 125
204, 40, 119, 118, 125
205, 41, 119, 125, 126
206, 41, 125, 47, 126
207, 41, 47, 48, 126
208, 41, 48, 42, 126
209, 41, 42, 120, 126
210, 41, 120, 119, 126
211, 43, 121, 127, 128
212, 43, 127, 49, 128
213, 43, 49, 50, 128
214, 43, 50, 44, 128
215, 43, 44, 122, 128
216, 43, 122, 121, 128
217, 44, 122, 128, 129
218, 44, 128, 50, 129
219, 44, 50, 51, 129
220, 44, 51, 45, 129
221, 44, 45, 123, 129
222, 44, 123, 122, 129
223, 45, 123, 129, 130
224, 45, 129, 51, 130
225, 45, 51, 52, 130
226, 45, 52, 46, 130
227, 45, 46, 124, 130
228, 45, 124, 123, 130
229, 46, 124, 130, 131
230, 46, 130, 52, 131
231, 46, 52, 53, 131
232, 46, 53, 47, 131
233, 46, 47, 125, 131
234, 46, 125, 124, 131
235, 47, 125, 131, 132
236, 47, 131, 53, 132
237, 47, 53, 54, 132
238, 47, 54, 48, 132
239, 47, 48, 126, 132
240, 47, 126, 125, 132
241, 49, 127, 133, 134
242, 49, 133, 55, 134
243, 49, 55, 56, 134
244, 49, 56, 50, 134
245, 49, 50, 128, 134
246, 49, 128, 127, 134
247, 50, 128, 134, 135
248, 50, 134, 56, 135
249, 50, 56, 57, 135
250, 50, 57, 51, 135
251, 50, 51, 129, 135
252, 50, 129, 128, 135
253, 51, 129, 135, 136
254, 51, 135, 57, 136
255, 51, 57, 58, 136
256, 51, 58, 52, 136
257, 51, 52, 130, 136
258, 51, 130, 129, 136
259, 52, 130, 136, 137
260, 52, 136, 58, 137
261, 52, 58, 59, 137
262, 52, 59, 53, 137
263, 52, 53, 131, 137
264, 52, 131, 130, 137
265, 53, 131, 137, 138
266, 53, 137, 59, 138
267, 53, 59, 60, 138
268, 53, 60, 54, 138
269, 53, 54, 132, 138
270, 53, 132, 131, 138
271, 55, 133, 139, 140
272, 55, 139, 61, 140
273, 55, 61, 62, 140
274, 55, 62, 56, 140
275, 55, 56, 134, 140
276, 55, 134, 133, 140
277, 56, 134, 140, 141
278, 56, 140, 62, 141
279, 56, 62, 63, 141
280, 56, 63, 57, 141
281, 56, 57, 135, 141
282, 56, 135, 134, 141
283, 57, 135, 141, 142
284, 57, 141, 63, 142
285, 57, 63, 64, 142
286, 57, 64, 58, 142
287, 57, 58, 136, 142
288, 57, 136, 135, 142
289, 58, 136, 142, 143
290, 58, 142, 64, 143
291, 58, 64, 65, 143
292, 58, 65, 59, 143
293, 58, 59, 137, 143
294, 58, 137, 136, 143
295, 59, 137, 143, 144
296, 59, 143, 65, 144
297, 59, 65, 66, 144
298, 59, 66, 60, 144
299, 59, 60, 138, 144
300, 59, 138, 137, 144
301, 61, 139, 145, 146
302, 61, 145, 67, 146
303, 61, 67, 68, 146
304, 61, 68, 62, 146
305, 61, 62, 140, 146
306, 61, 140, 139, 146
307, 62, 140, 146, 147
308, 62, 146, 68, 147
309, 62, 68, 69, 147
310, 62, 69, 63, 147
311, 62, 63, 141, 147
312, 62, 141, 140, 147
313, 63, 141, 147, 148
314, 63, 147, 69, 148
315, 63, 69, 70, 148
316, 63, 70, 64, 148
317, 63, 64, 142, 148
318, 63, 142, 141, 148
319, 64, 142, 148, 149
320, 64, 148, 70, 149
321, 64, 70, 71, 149
322, 64, 71, 65, 149
323, 64, 65, 143, 149
324, 64, 143, 142, 149
325, 65, 143, 149, 150
326, 65, 149, 71, 150
327, 65, 71, 72, 150
328, 65, 72, 66, 150
329, 65, 66, 144, 150
330, 65, 144, 143, 150
331, 67, 145, 151, 152
332, 67, 151, 73, 152
333, 67, 73, 74, 152
334, 67, 74, 68, 152
335, 67, 68, 146, 152
336, 67, 146, 145, 152
337, 68, 146, 152, 153
338, 68, 152, 74, 153
339, 68, 74, 75, 153
340, 68, 75, 69, 153
341, 68, 69, 147, 153
342, 68, 147, 146, 153
343, 69, 147, 153, 154
344, 69, 153, 75, 154
345, 69, 75, 76, 154
346, 69, 76, 70, 154
347, 69, 70, 148, 154
348, 69, 148, 147, 154
349, 70, 148, 154, 155
350, 70, 154, 76, 155
351, 70, 76, 77, 155
352, 70, 77, 71, 155
353, 70, 71, 149, 155
354, 70, 149, 148, 155
355, 71, 149, 155, 156
356, 71, 155, 77, 156
357, 71, 77, 78, 156
358, 71, 78, 72, 156
359, 71, 72, 150, 156
360, 71, 150, 149, 156
361, 79, 157, 163, 164
362, 79, 163, 85, 164
363, 79, 85, 86, 164
364, 79, 86, 80, 164
365, 79, 80, 158, 164
366, 79, 158, 157, 164
367, 80, 158, 164, 165
368, 80, 164, 86, 165
369, 80, 86, 87, 165
370, 80, 87, 81, 165
371, 80, 81, 159, 165
372, 80, 159, 158, 165
373, 81, 159, 165, 166
374, 81, 165, 87, 166
375, 81, 87, 88, 166
376, 81, 88, 82, 166
377, 81, 82, 160, 166
378, 81, 160, 159, 166
379, 82, 160, 166, 167
380, 82, 166, 88, 167
381, 82, 88, 89, 167
382, 82, 89, 83, 167
383, 82, 83, 161, 167
384, 82, 161, 160, 167
385, 83, 161, 167, 168
386, 83, 167, 89, 168
387, 83, 89, 90, 168
388, 83, 90, 84, 168
389, 83, 84, 162, 168
390, 83, 162, 161, 168
391, 85, 163, 169, 170
392, 85, 169, 91, 170
393, 85, 91, 92, 170
394, 85, 92, 86, 170
395, 85, 86, 164, 170
396, 85, 164, 163, 170
397, 86, 164, 170, 171
398, 86, 170, 92, 171
399, 86, 92, 93, 171
400, 86, 93, 87, 171
401, 86, 87, 165, 171
402, 86, 165, 164, 171
403, 87, 165, 171, 172
404, 87, 171, 93, 172
405, 87, 93, 94, 172
406, 87, 94, 88, 172
407, 87, 88, 166, 172
408, 87, 166, 165, 172
409, 88, 166, 172, 173
410, 88, 172, 94, 173
411, 88, 94, 95, 173
412, 88, 95, 89, 173
413, 88, 89, 167, 173
414, 88, 167, 166, 173
415, 89, 167, 173, 174
416, 89, 173, 95, 174
417, 89, 95, 96, 174
418, 89, 96, 90, 174
419, 89, 90, 168, 174
420, 89, 168, 167, 174
421, 91, 169, 175, 176
422, 91, 175, 97, 176
423, 91, 97, 98, 176
424, 91, 98, 92, 176
425, 91, 92, 170, 176
426, 91, 170, 169, 176
427, 92, 170, 176, 177
428, 92, 176, 98, 177
429, 92, 98, 99, 177
430, 92, 99, 93, 177
431, 92, 93, 171, 177
432, 92, 171, 170, 177
433, 93, 171, 177, 178
434, 93, 177, 99, 178
435, 93, 99, 100, 178
436, 93, 100, 94, 178
437, 93, 94, 172, 178
438, 93, 172, 171, 178
439, 94, 172, 178, 179
440, 94, 178, 100, 179
441, 94, 100, 101, 179
442, 94, 101, 95, 179
443, 94, 95, 173, 179
444, 94, 173, 172, 179
445, 95, 173, 179, 180
446, 95, 179, 101, 180
447, 95, 101, 102, 180
448, 95, 102, 96, 180
449, 95, 96, 174, 180
450, 95, 174, 173, 180
451, 97, 175, 181, 182
452, 97, 181, 103, 182
453, 97, 103, 104, 182
454, 97, 104, 98, 182
455, 97, 98, 176, 182
456, 97, 176, 175, 182
457, 98, 176, 182, 183
458, 98, 182, 104, 183
459, 98, 104, 105, 183
460, 98, 105, 99, 183
461, 98, 99, 177, 183
462, 98, 177, 176, 183
463, 99, 177, 183, 184
464, 99, 183, 105, 184
465, 99, 105, 106, 184
466, 99, 106, 100, 184
467, 99, 100, 178, 184
468, 99, 178, 177, 184
469, 100, 178, 184, 185
470, 100, 184, 106, 185
471, 100, 106, 107, 185
472, 100, 107, 101, 185
473, 100, 101, 179, 185
474, 100, 179, 178, 185
475, 101, 179, 185, 186
476, 101, 185, 107, 186
477, 101, 107, 108, 186
478, 101, 108, 102, 186
479, 101, 102, 180, 186
480, 101, 180, 179, 186
481, 103, 181, 187, 188
482, 103, 187, 109, 188
483, 103, 109, 110, 188
484, 103, 110, 104, 188
485, 103, 104, 182, 188
486, 103, 182, 181, 188
487, 104, 182, 188, 189
488, 104, 188, 110, 189
489, 104, 110, 111, 189
490, 104, 111, 105, 189
491, 104, 105, 183, 189
492, 104, 183, 182, 189
493, 105, 183, 189, 190
494, 105, 189, 111, 190
495, 105, 111, 112, 190
496, 105, 112, 106, 190
497, 105, 106, 184, 190
498, 105, 184, 183, 190
499, 106, 184, 190, 191
500, 106, 190, 112, 191
501, 106, 112, 113, 191
502, 106, 113, 107, 191
503, 106, 107, 185, 191
504, 106, 185, 184, 191
505, 107, 185, 191, 192
506, 107, 191, 113, 192
507, 107, 113, 114, 192
508, 107, 114, 108, 192
509, 107, 108, 186, 192
510, 107, 186, 185, 192
511, 109, 187, 193, 194
512, 109, 193, 115, 194
513, 109, 115, 116, 194
514, 109, 116, 110, 194
515, 109, 110, 188, 194
516, 109, 188, 187, 194
517, 110, 188, 194, 195
518, 110, 194, 116, 195
519, 110, 116, 117, 195
520, 110, 117, 111, 195
521, 110, 111, 189, 195
522, 110, 189, 188, 195
523, 111, 189, 195, 196
524, 111, 195, 117, 196
525, 111, 117, 118, 196
526, 111, 118, 112, 196
527, 111, 112, 190, 196
528, 111, 190, 189, 196
529, 112, 190, 196, 197
530, 112, 196, 118, 197
531, 112, 118, 119, 197
532, 112, 119, 113, 197
533, 112, 113, 191, 197
534, 112, 191, 190, 197
535, 113, 191, 197, 198
536, 113, 197, 119, 198
537, 113, 119, 120, 198
538, 113, 120, 114, 198
539, 113, 114, 192, 198
540, 113, 192, 191, 198
541, 115, 193, 199, 200
542, 115, 199, 121, 200
543, 115, 121, 122, 200
544, 115, 122, 116, 200
545, 115, 116, 194, 200
546, 115, 194, 193, 200
547, 116, 194, 200, 201
548, 116, 200, 122, 201
549, 116, 122, 123, 201
550, 116, 123, 117, 201
551, 116, 117, 195, 201
552, 116, 195, 194, 201
553, 117, 195, 201, 202
554, 117, 201, 123, 202
555, 117, 123, 124, 202
556, 117, 124, 118, 202
557, 117, 118, 196, 202
558, 117, 196, 195, 202
559, 118, 196, 202, 203
560, 118, 202, 124, 203
561, 118, 124, 125, 203
562, 118, 125, 119, 203
563, 118, 119, 197, 203
564, 118, 197, 196, 203
565, 119, 197, 203, 204
566, 119, 203, 125, 204
567, 119, 125, 126, 204
568, 119, 126, 120, 204
569, 119, 120, 198, 204
570, 119, 198, 197, 204
571, 121, 199, 205, 206
572, 121, 205, 127, 206
573, 121, 127, 128, 206
574, 121, 128, 122, 206
575, 121, 122, 200, 206
576, 121, 200, 199, 206
577, 122, 200, 206, 207
578, 122, 206, 128, 207
579, 122, 128, 129, 207
580, 122, 129, 123, 207
581, 122, 123, 201, 207
582, 122, 201, 200, 207
583, 123, 201, 207, 208
584, 123, 207, 129, 208
585, 123, 129, 130, 208
586, 123, 130, 124, 208
587, 123, 124, 202, 208
588, 123, 202, 201, 208
589, 124, 202, 208, 209
590, 124, 208, 130, 209
591, 124, 130, 131, 209
592, 124, 131, 125, 209
593, 124, 125, 203, 209
594, 124, 203, 202, 209
595, 125, 203, 209, 210
596, 125, 209, 131, 210
597, 125, 131, 132, 210
598, 125, 132, 126, 210
599, 125, 126, 204, 210
600, 125, 204, 203, 210
601, 127, 205, 211, 212
602, 127, 211, 133, 212
603, 127, 133, 134, 212
604, 127, 134, 128, 212
605, 127, 128, 206, 212
606, 127, 206, 205, 212
607, 128, 206, 212, 213
608, 128, 212, 134, 213
609, 128, 134, 135, 213
610, 128, 135, 129, 213
611, 128, 129, 207, 213
612, 128, 207, 206, 213
613, 129, 207, 213, 214
614, 129, 213, 135, 214
615, 129, 135, 136, 214
616, 129, 136, 130, 214
617, 129, 130, 208, 214
618, 129, 208, 207, 214
619, 130, 208, 214, 215
620, 130, 214, 136, 215
621, 130, 136, 137, 215
622, 130, 137, 131, 215
623, 130, 131, 209, 215
624, 130, 209, 208, 215
625, 131, 209, 215, 216
626, 131, 215, 137, 216
627, 131, 137, 138, 216
628, 131, 138, 132, 216
629, 131, 132, 210, 216
630, 131, 210, 209, 216
631, 133, 211, 217, 218
632, 133, 217, 139, 218
633, 133, 139, 140, 218
634, 133, 140, 134, 218
635, 133, 134, 212, 218
636, 133, 212, 211, 218
637, 134, 212, 218, 219
638, 134, 218, 140, 219
639, 134, 140, 141, 219
640, 134, 141, 135, 219
641, 134, 135, 213, 219
642, 134, 213, 212, 219
643, 135, 213, 219, 220
644, 135, 219, 141, 220
645, 135, 141, 142, 220
646, 135, 142, 136, 220
647, 135, 136, 214, 220
648, 135, 214, 213, 220
649, 136, 214, 220, 221
650, 136, 220, 142, 221
651, 136, 142, 143, 221
652, 136, 143, 137, 221
653, 136, 137, 215, 221
654, 136, 215, 214, 221
655, 137, 215, 221, 222
656, 137, 221, 143, 222
657, 137, 143, 144, 222
658, 137, 144, 138, 222
659, 137, 138, 216, 222
660, 137, 216, 215, 222
661, 139, 217, 223, 224
662, 139, 223, 145, 224
663, 139, 145, 146, 224
664, 139, 146, 140, 224
665, 139, 140, 218, 224
666, 139, 218, 217, 224
667, 140, 218, 224, 225
668, 140, 224, 146, 225
669, 140, 146, 147, 225
670, 140, 147, 141, 225
671, 140, 141, 219, 225
672, 140, 219, 218, 225
673, 141, 219, 225, 226
674, 141, 225, 147, 226
675, 141, 147, 148, 226
676, 141, 148, 142, 226
677, 141, 142, 220, 226
678, 141, 220, 219, 226
679, 142, 220, 226, 227
680, 142, 226, 148, 227
681, 142, 148, 149, 227
682, 142, 149, 143, 227
683, 142, 143, 221, 227
684, 142, 221, 220, 227
685, 143, 221, 227, 228
686, 143, 227, 149, 228
687, 143, 149, 150, 228
688, 143, 150, 144, 228
689, 143, 144, 222, 228
690, 143, 222, 221, 228
691, 145, 223, 229, 230
692, 145, 229, 151, 230
693, 145, 151, 152, 230
694, 145, 152, 146, 230
695, 145, 146, 224, 230
696, 145, 224, 223, 230
697, 146, 224, 230, 231
698, 146, 230, 152, 231
699, 146, 152, 153, 231
700, 146, 153, 147, 231
701, 146, 147, 225, 231
702, 146, 225, 224, 231
703, 147, 225, 231, 232
704, 147, 231, 153, 232
705, 147, 153, 154, 232
706, 147, 154, 148, 232
707, 147, 148, 226, 232
708, 147, 226, 225, 232
709, 148, 226, 232, 233
710, 148, 232, 154, 233
711, 148, 154, 155, 233
712, 148, 155, 149, 233
713, 148, 149, 227, 233
714, 148, 227, 226, 233
715, 149, 227, 233, 234
716, 149, 233, 155, 234
717, 149, 155, 156, 234
718, 149, 156, 150, 234
719, 149, 150, 228, 234
720, 149, 228, 227, 234
721, 157, 235, 241, 242
722, 157, 241, 163, 242
723, 157, 163, 164, 242
724, 157, 164, 158, 242
725, 157, 158, 236, 242
726, 157, 236, 235, 242
727, 158, 236, 242, 243
728, 158, 242, 164, 243
729, 158, 164, 165, 243
730, 158, 165, 159, 243
731, 158, 159, 237, 243
732, 158, 237, 236, 243
733, 159, 237, 243, 244
734, 159, 243, 165, 244
735, 159, 165, 166, 244
736, 159, 166, 160, 244
737, 159, 160, 238, 244
738, 159, 238, 237, 244
739, 160, 238, 244, 245
740, 160, 244, 166, 245
741, 160, 166, 167, 245
742, 160, 167, 161, 245
743, 160, 161, 239, 245
744, 160, 239, 238, 245
745, 161, 239, 245, 246
746, 161, 245, 167, 246
747, 161, 167, 168, 246
748, 161, 168, 162, 246
749, 161, 162, 240, 246
750, 161, 240, 239, 246
751, 163, 241, 247, 248
752, 163, 247, 169, 248
753, 163, 169, 170, 248
754, 163, 170, 164, 248
755, 163, 164, 242, 248
756, 163, 242, 241, 248
757, 164, 242, 248, 249
758, 164, 248, 170, 249
759, 164, 170, 171, 249
760, 164, 171, 165, 249
761, 164, 165, 243, 249
762, 164, 243, 242, 249
763, 165, 243, 249, 250
764, 165, 249, 171, 250
765, 165, 171, 172, 250
766, 165, 172, 166, 250
767, 165, 166, 244, 250
768, 165, 244, 243, 250
769, 166, 244, 250, 251
770, 166, 250, 172, 251
771, 166, 172, 173, 251
772, 166, 173, 167, 251
773, 166, 167, 245, 251
774, 166, 245, 244, 251
775, 167, 245, 251, 252
776, 167, 251, 173, 252
777, 167, 173, 174, 252
778, 167, 174, 168, 252
779, 167, 168, 246, 252
780, 167, 246, 245, 252
781, 169, 247, 253, 254
782, 169, 253, 175, 254
783, 169, 175, 176, 254
784, 169, 176, 170, 254
785, 169, 170, 248, 254
786, 169, 248, 247, 254
787, 170, 248, 254, 255
788, 170, 254, 176, 255
789, 170, 176, 177, 255
790, 170, 177, 171, 255
791, 170, 171, 249, 255
792, 170, 249, 248, 255
793, 171, 249, 255, 256
794, 171, 255, 177, 256
795, 171, 177, 178, 256
796, 171, 178, 172, 256
797, 171, 172, 250, 256
798, 171, 250, 249, 256
799, 172, 250, 256, 257
800, 172, 256, 178, 257
801, 172, 178, 179, 257
802, 172, 179, 173, 257
803, 172, 173, 251, 257
804, 172, 251, 250, 257
805, 173, 251, 257, 258
806, 173, 257, 179, 258
807, 173, 179, 180, 258
808, 173, 180, 174, 258
809, 173, 174, 252, 258
810, 173, 252, 251, 258
811, 175, 253, 259, 260
812, 175, 259, 181, 260
813, 175, 181, 182, 260
814, 175, 182, 176, 260
815, 175, 176, 254, 260
816, 175, 254, 253, 260
817, 176, 254, 260, 261
818, 176, 260, 182, 261
819, 176, 182, 183, 261
820, 176, 183, 177, 261
821, 176, 177, 255, 261
822, 176, 255, 254, 261
823, 177, 255, 261, 262
824, 177, 261, 183, 262
825, 177, 183, 184, 262
826, 177, 184, 178, 262
827, 177, 178, 256, 262
828, 177, 256, 255, 262
829, 178, 256, 262, 263
830, 178, 262, 184, 263
831, 178, 184, 185, 263
832, 178, 185, 179, 263
833, 178, 179, 257, 263
834, 178, 257, 256, 263
835, 179, 257, 263, 264
836, 179, 263, 185, 264
837, 179, 185, 186, 264
838, 179, 186, 180, 264
839, 179, 180, 258, 264
840, 179, 258, 257, 264
841, 181, 259, 265, 266
842, 181, 265, 187, 266
843, 181, 187, 188, 266
844, 181, 188, 182, 266
845, 181, 182, 260, 266
846, 181, 260, 259, 266
847, 182, 260, 266, 267
848, 182, 266, 188, 267
849, 182, 188, 189, 267
850, 182, 189, 183, 267
851, 182, 183, 261, 267
852, 182, 261, 260, 267
853, 183, 261, 267, 268
854, 183, 267, 189, 268
855, 183, 189, 190, 268
856, 183, 190, 184, 268
857, 183, 184, 262, 268
858, 183, 262, 261, 268
859, 184, 262, 268, 269
860, 184, 268, 190, 269
861, 184, 190, 191, 269
862, 184, 191, 185, 269
863, 184, 185, 263, 269
864, 184, 263, 262, 269
865, 185, 263, 269, 270
866, 185, 269, 191, 270
867, 185, 191, 192, 270
868, 185, 192, 186, 270
869, 185, 186, 264, 270
870, 185, 264, 263, 270
871, 187, 265, 271, 272
872, 187, 271, 193, 272
873, 187, 193, 194, 272
874, 187, 194, 188, 272
875, 187, 188, 266, 272
876, 187, 266, 265, 272
877, 188, 266, 272, 273
878, 188, 272, 194, 273
879, 188, 194, 195, 273
880, 188, 195, 189, 273
881, 188, 189, 267, 273
882, 188, 267, 266, 273
883, 189, 267, 273, 274
884, 189, 273, 195, 274
885, 189, 195, 196, 274
886, 189, 196, 190, 274
887, 189, 190, 268, 274
888, 189, 268, 267, 274
889, 190, 268, 274, 275
890, 190, 274, 196, 275
891, 190, 196, 197, 275
892, 190, 197, 191, 275
893, 190, 191, 269, 275
894, 190, 269, 268, 275
895, 191, 269, 275, 276
896, 191, 275, 197, 276
897, 191, 197, 198, 276
898, 191, 198, 192, 276
899, 191, 192, 270, 276
900, 191, 270, 269, 276
901, 193, 271, 277, 278
902, 193, 277, 199, 278
903, 193, 199, 200, 278
904, 193, 200, 194, 278
905, 193, 194, 272, 278
906, 193, 272, 271, 278
907, 194, 272, 278, 279
908, 194, 278, 200, 279
909, 194, 200, 201, 279
910, 194, 201, 195, 279
911, 194, 195, 273, 279
912, 194, 273, 272, 279
913, 195, 273, 279, 280
914, 195, 279, 201, 280
915, 195, 201, 202, 280
916, 195, 202, 196, 280
917, 195, 196, 274, 280
918, 195, 274, 273, 280
919, 196, 274, 280, 281
920, 196, 280, 202, 281
921, 196, 202, 203, 281
922, 196, 203, 197, 281
923, 196, 197, 275, 281
924, 196, 275, 274, 281
925, 197, 275, 281, 282
926, 197, 281, 203, 282
927, 197, 203, 204, 282
928, 197, 204, 198, 282
929, 197, 198, 276, 282
930, 197, 276, 275, 282
931, 199, 277, 283, 284
932, 199, 283, 205, 284
933, 199, 205, 206, 284
934, 199, 206, 200, 284
935, 199, 200, 278, 284
936, 199, 278, 277, 284
937, 200, 278, 284, 285
938, 200, 284, 206, 285
939, 200, 206, 207, 285
940, 200, 207, 201, 285
941, 200, 201, 279, 285
942, 200, 279, 278, 285
943, 201, 279, 285, 286
944, 201, 285, 207, 286
945, 201, 207, 208, 286
946, 201, 208, 202, 286
947, 201, 202, 280, 286
948, 201, 280, 279, 286
949, 202, 280, 286, 287
950, 202, 286, 208, 287
951, 202, 208, 209, 287
952, 202, 209, 203, 287
953, 202, 203, 281, 287
954, 202, 281, 280, 287
955, 203, 281, 287, 288
956, 203, 287, 209, 288
957, 203, 209, 210, 288
958, 203, 210, 204, 288
959, 203, 204, 282, 288
960, 203, 282, 281, 288
961, 205, 283, 289, 290
962, 205, 289, 211, 290
963, 205, 211, 212, 290
964, 205, 212, 206, 290
965, 205, 206, 284, 290
966, 205, 284, 283, 290
967, 206, 284, 290, 291
968, 206, 290, 212, 291
969, 206, 212, 213, 291
970, 206, 213, 207, 291
971, 206, 207, 285, 291
972, 206, 285, 284, 291
973, 207, 285, 291, 292
974, 207, 291, 213, 292
975, 207, 213, 214, 292
976, 207, 214, 208, 292
977, 207, 208, 286, 292
978, 207, 286, 285, 292
979, 208, 286, 292, 293
980, 208, 292, 214, 293
981, 208, 214, 215, 293
982, 208, 215, 209, 293
983, 208, 209, 287, 293
984, 208, 287, 286, 293
985, 209, 287, 293, 294
986, 209, 293, 215, 294
987, 209, 215, 216, 294
988, 209, 216, 210, 294
989, 209, 210, 288, 294
990, 209, 288, 287, 294
991, 211, 289, 295, 296
992, 211, 295, 217, 296
993, 211, 217, 218, 296
994, 211, 218, 212, 296
995, 211, 212, 290, 296
996, 211, 290, 289, 296
997, 212, 290, 296, 297
998, 212, 296, 218, 297
999, 212, 218, 219, 297
1000, 212, 219, 213, 297
1001, 212, 213, 291, 297
1002, 212, 291, 290, 297
1003, 213, 291, 297, 298
1004, 213, 297, 219, 298
1005, 213, 219, 220, 298
1006, 213, 220, 214, 298
1007, 213, 214, 292, 298
1008, 213, 292, 291, 298
1009, 214, 292, 298, 299
1010, 214, 298, 220, 299
1011, 214, 220, 221, 299
1012, 214, 221, 215, 299
1013, 214, 215, 293, 299
1014, 214, 293, 292, 299
1015, 215, 293, 299, 300
1016, 215, 299, 221, 300
1017, 215, 221, 222, 300
1018, 215, 222, 216, 300
1019, 215, 216, 294, 300
1020, 215, 294, 293, 300
1021, 217, 295, 301, 302
1022, 217, 301, 223, 302
1023, 217, 223, 224, 302
1024, 217, 224, 218, 302
1025, 217, 218, 296, 302
1026, 217, 296, 295, 302
1027, 218, 296, 302, 303
1028, 218, 302, 224, 303
1029, 218, 224, 225, 303
1030, 218, 225, 219, 303
1031, 218, 219, 297, 303
1032, 218, 297, 296, 303
1033, 219, 297, 303, 304
1034, 219, 303, 225, 304
1035, 219, 225, 226, 304
1036, 219, 226, 220, 304
1037, 219, 220, 298, 304
1038, 219, 298, 297, 304
1039, 220, 298, 304, 305
1040, 220, 304, 226, 305
1041, 220, 226, 227, 305
1042, 220, 227, 221, 305
1043, 220, 221, 299, 305
1044, 220, 299, 298, 305
1045, 221, 299, 305, 306
1046, 221, 305, 227, 306
1047, 221, 227, 228, 306
1048, 221, 228, 222, 306
1049, 221, 222, 300, 306
1050, 221, 300, 299, 306
1051, 223, 301, 307, 308
1052, 223, 307, 229, 308
1053, 223, 229, 230, 308
1054, 223, 230, 224, 308
1055, 223, 224, 302, 308
1056, 223, 302, 301, 308
1057, 224, 302, 308, 309
1058, 224, 308, 230, 309
1059, 224, 230, 231, 309
1060, 224, 231, 225, 309
1061, 224, 225, 303, 309
1062, 224, 303, 302, 309
1063, 225, 303, 309, 310
1064, 225, 309, 231, 310
1065, 225, 231, 232, 310
1066, 225, 232, 226, 310
1067, 225, 226, 304, 310
1068, 225, 304, 303, 310
1069, 226, 304, 310, 311
1070, 226, 310, 232, 311
1071, 226, 232, 233, 311
1072, 226, 233, 227, 311
1073, 226, 227, 305, 311
1074, 226, 305, 304, 311
1075, 227, 305, 311, 312
1076, 227, 311, 233, 312
1077, 227, 233, 234, 312
1078, 227, 234, 228, 312
1079, 227, 228, 306, 312
1080, 227, 306, 305, 312
1081, 235, 313, 319, 320
1082, 235, 319, 241, 320
1083, 235, 241, 242, 320
1084, 235, 242, 236, 320
1085, 235, 236, 314, 320
1086, 235, 314, 313, 320
1087, 236, 314, 320, 321
1088, 236, 320, 242, 321
1089, 236, 242, 243, 321
1090, 236, 243, 237, 321
1091, 236, 237, 315, 321
1092, 236, 315, 314, 321
1093, 237, 315, 321, 322
1094, 237, 321, 243, 322
1095, 237, 243, 244, 322
1096, 237, 244, 238, 322
1097, 237, 238, 316, 322
1098, 237, 316, 315, 322
1099, 238, 316, 322, 323
1100, 238, 322, 244, 323
1101, 238, 244, 245, 323
1102, 238, 245, 239, 323
1103, 238, 239, 317, 323
1104, 238, 317, 316, 323
1105, 239, 317, 323, 324
1106, 239, 323, 245, 324
1107, 239, 245, 246, 324
1108, 239, 246, 240, 324
1109, 239, 240, 318, 324
1110, 239, 318, 317, 324
1111, 241, 319, 325, 326
1112, 241, 325, 247, 326
1113, 241, 247, 248, 326
1114, 241, 248, 242, 326
1115, 241, 242, 320, 326
1116, 241, 320, 319, 326
1117, 242, 320, 326, 327
1118, 242, 326, 248, 327
1119, 242, 248, 249, 327
1120, 242, 249, 243, 327
1121, 242, 243, 321, 327
1122, 242, 321, 320, 327
1123, 243, 321, 327, 328
1124, 243, 327, 249, 328
1125, 243, 249, 250, 328
1126, 243, 250, 244, 328
1127, 243, 244, 322, 328
1128, 243, 322, 321, 328
1129, 244, 322, 328, 329
1130, 244, 328, 250, 329
1131, 244, 250, 251, 329
1132, 244, 251, 245, 329
1133, 244, 245, 323, 329
1134, 244, 323, 322, 329
1135, 245, 323, 329, 330
1136, 245, 329, 251, 330
1137, 245, 251, 252, 330
1138, 245, 252, 246, 330
1139, 245, 246, 324, 330
1140, 245, 324, 323, 330
1141, 247, 325, 331, 332
1142, 247, 331, 253, 332
1143, 247, 253, 254, 332
1144, 247, 254, 248, 332
1145, 247, 248, 326, 332
1146, 247, 326, 325, 332
1147, 248, 326, 332, 333
1148, 248, 332, 254, 333
1149, 248, 254, 255, 333
1150, 248, 255, 249, 333
1151, 248, 249, 327, 333
1152, 248, 327, 326, 333
1153, 249, 327, 333, 334
1154, 249, 333, 255, 334
1155, 249, 255, 256, 334
1156, 249, 256, 250, 334
1157, 249, 250, 328, 334
1158, 249, 328, 327, 334
1159, 250, 328, 334, 335
1160, 250, 334, 256, 335
1161, 250, 256, 257, 335
1162, 250, 257, 251, 335
1163, 250, 251, 329, 335
1164, 250, 329, 328, 335
1165, 251, 329, 335, 336
1166, 251, 335, 257, 336
1167, 251, 257, 258, 336
1168, 251, 258, 252, 336
1169, 251, 252, 330, 336
1170, 251, 330, 329, 336
1171, 253, 331, 337, 338
1172, 253, 337, 259, 338
1173, 253, 259, 260, 338
1174, 253, 260, 254, 338
1175, 253, 254, 332, 338
1176, 253, 332, 331, 338
1177, 254, 332, 338, 339
1178, 254, 338, 260, 339
1179, 254, 260, 261, 339
1180, 254, 261, 255, 339
1181, 254, 255, 333, 339
1182, 254, 333, 332, 339
1183, 255, 333, 339, 340
1184, 255, 339, 261, 340
1185, 255, 261, 262, 340
1186, 255, 262, 256, 340
1187, 255, 256, 334, 340
1188, 255, 334, 333, 340
1189, 256, 334, 340, 341
1190, 256, 340, 262, 341
1191, 256, 262, 263, 341
1192, 256, 263, 257, 341
1193, 256, 257, 335, 341
1194, 256, 335, 334, 341
1195, 257, 335, 341, 342
1196, 257, 341, 263, 342
1197, 257, 263, 264, 342
1198, 257, 264, 258, 342
1199, 257, 258, 336, 342
1200, 257, 336, 335, 342
1201, 259, 337, 343, 344
1202, 259, 343, 265, 344
1203, 259, 265, 266, 344
1204, 259, 266, 260, 344
1205, 259, 260, 338, 344
1206, 259, 338, 337, 344
1207, 260, 338, 344, 345
1208, 260, 344, 266, 345
1209, 260, 266, 267, 345
1210, 260, 267, 261, 345
1211, 260, 261, 339, 345
1212, 260, 339, 338, 345
1213, 261, 339, 345, 346
1214, 261, 345, 267, 346
1215, 261, 267, 268, 346
1216, 261, 268, 262, 346
1217, 261, 262, 340, 346
1218, 261, 340, 339, 346
1219, 262, 340, 346, 347
1220, 262, 346, 268, 347
1221, 262, 268, 269, 347
1222, 262, 269, 263, 347
1223, 262, 263, 341, 347
1224, 262, 341, 340, 347
1225, 263, 341, 347, 348
1226, 263, 347, 269, 348
1227, 263, 269, 270, 348
1228, 263, 270, 264, 348
1229, 263, 264, 342, 348
1230, 263, 342, 341, 348
1231, 265, 343, 349, 350
1232, 265, 349, 271, 350
1233, 265, 271, 272, 350
1234, 265, 272, 266, 350
1235, 265, 266, 344, 350
1236, 265, 344, 343, 350
1237, 266, 344, 350, 351
1238, 266, 350, 272, 351
1239, 266, 272, 273, 351
1240, 266, 273, 267, 351
1241, 266, 267, 345, 351
1242, 266, 345, 344, 351
1243, 267, 345, 351, 352
1244, 267, 351, 273, 352
1245, 267, 273, 274, 352
1246, 267, 274, 268, 352
1247, 267, 268, 346, 352
1248, 267, 346, 345, 352
1249, 268, 346, 352, 353
1250, 268, 352, 274, 353
1251, 268, 274, 275, 353
1252, 268, 275, 269, 353
1253, 268, 269, 347, 353
1254, 268, 347, 346, 353
1255, 269, 347, 353, 354
1256, 269, 353, 275, 354
1257, 269, 275, 276, 354
1258, 269, 276, 270, 354
1259, 269, 270, 348, 354
1260, 269, 348, 347, 354
1261, 271, 349, 355, 356
1262, 271, 355, 277, 356
1263, 271, 277, 278, 356
1264, 271, 278, 272, 356
1265, 271, 272, 350, 356
1266, 271, 350, 349, 356
1267, 272, 350, 356, 357
1268, 272, 356, 278, 357
1269, 272, 278, 279, 357
1270, 272, 279, 273, 357
1271, 272, 273, 351, 357
1272, 272, 351, 350, 357
1273, 273, 351, 357, 358
1274, 273, 357, 279, 358
1275, 273, 279, 280, 358
1276, 273, 280, 274, 358
1277, 273, 274, 352, 358
1278, 273, 352, 351, 358
1279, 274, 352, 358, 359
1280, 274, 358, 280, 359
1281, 274, 280, 281, 359
1282, 274, 281, 275, 359
1283, 274, 275, 353, 359
1284, 274, 353, 352, 359
1285, 275, 353, 359, 360
1286, 275, 359, 281, 360
1287, 275, 281, 282, 360
1288, 275, 282, 276, 360
1289, 275, 276, 354, 360
1290, 275, 354, 353, 360
1291, 277, 355, 361, 362
1292, 277, 361, 283, 362
1293, 277, 283, 284, 362
1294, 277, 284, 278, 362
1295, 277, 278, 356, 362
1296, 277, 356, 355, 362
1297, 278, 356, 362, 363
1298, 278, 362, 284, 363
1299, 278, 284, 285, 363
1300, 278, 285, 279, 363
1301, 278, 279, 357, 363
1302, 278, 357, 356, 363
1303, 279, 357, 363, 364
1304, 279, 363, 285, 364
1305, 279, 285, 286, 364
1306, 279, 286, 280, 364
1307, 279, 280, 358, 364
1308, 279, 358, 357, 364
1309, 280, 358, 364, 365
1310, 280, 364, 286, 365
1311, 280, 286, 287, 365
1312, 280, 287, 281, 365
1313, 280, 281, 359, 365
1314, 280, 359, 358, 365
1315, 281, 359, 365, 366
1316, 281, 365, 287, 366
1317, 281, 287, 288, 366
1318, 281, 288, 282, 366
1319, 281, 282, 360, 366
1320, 281, 360, 359, 366
1321, 283, 361, 367, 368
1322, 283, 367, 289, 368
1323, 283, 289, 290, 368
1324, 283, 290, 284, 368
1325, 283, 284, 362, 368
1326, 283, 362, 361, 368
1327, 284, 362, 368, 369
1328, 284, 368, 290, 369
1329, 284, 290, 291, 369
1330, 284, 291, 285, 369
1331, 284, 285, 363, 369
1332, 284, 363, 362, 369
1333, 285, 363, 369, 370
1334, 285, 369, 291, 370
1335, 285, 291, 292, 370
1336, 285, 292, 286, 370
1337, 285, 286, 364, 370
1338, 285, 364, 363, 370
1339, 286, 364, 370, 371
1340, 286, 370, 292, 371
1341, 286, 292, 293, 371
1342, 286, 293, 287, 371
1343, 286, 287, 365, 371
1344, 286, 365, 364, 371
1345, 287, 365, 371, 372
1346, 287, 371, 293, 372
1347, 287, 293, 294, 372
1348, 287, 294, 288, 372
1349, 287, 288, 366, 372
1350, 287, 366, 365, 372
1351, 289, 367, 373, 374
1352, 289, 373, 295, 374
1353, 289, 295, 296, 374
1354, 289, 296, 290, 374
1355, 289, 290, 368, 374
1356, 289, 368, 367, 374
1357, 290, 368, 374, 375
1358, 290, 374, 296, 375
1359, 290, 296, 297, 375
1360, 290, 297, 291, 375
1361, 290, 291, 369, 375
1362, 290, 369, 368, 375
1363, 291, 369, 375, 376
1364, 291, 375, 297, 376
1365, 291, 297, 298, 376
1366, 291, 298, 292, 376
1367, 291, 292, 370, 376
1368, 291, 370, 369, 376
1369, 292, 370, 376, 377
1370, 292, 376, 298, 377
1371, 292, 298, 299, 377
1372, 292, 299, 293, 377
1373, 292, 293, 371, 377
1374, 292, 371, 370, 377
1375, 293, 371, 377, 378
1376, 293, 377, 299, 378
1377, 293, 299, 300, 378
1378, 293, 300, 294, 378
1379, 293, 294, 372, 378
1380, 293, 372, 371, 378
1381, 295, 373, 379, 380
1382, 295, 379, 301, 380
1383, 295, 301, 302, 380
1384, 295, 302, 296, 380
1385, 295, 296, 374, 380
1386, 295, 374, 373, 380
1387, 296, 374, 380, 381
1388, 296, 380, 302, 381
1389, 296, 302, 303, 381
1390, 296, 303, 297, 381
1391, 296, 297, 375, 381
1392, 296, 375, 374, 381
1393, 297, 375, 381, 382
1394, 297, 381, 303, 382
1395, 297, 303, 304, 382
1396, 297, 304, 298, 382
1397, 297, 298, 376, 382
1398, 297, 376, 375, 382
1399, 298, 376, 382, 383
1400, 298, 382, 304, 383
1401, 298, 304, 305, 383
1402, 298, 305, 299, 383
1403, 298, 299, 377, 383
1404, 298, 377, 376, 383
1405, 299, 377, 383, 384
1406, 299, 383, 305, 384
1407, 299, 305, 306, 384
1408, 299, 306, 300, 384
1409, 299, 300, 378, 384
1410, 299, 378, 377, 384
1411, 301, 379, 385, 386
1412, 301, 385, 307, 386
1413, 301, 307, 308, 386
1414, 301, 308, 302, 386
1415, 301, 302, 380, 386
1416, 301, 380, 379, 386
1417, 302, 380, 386, 387
1418, 302, 386, 308, 387
1419, 302, 308, 309, 387
1420, 302, 309, 303, 387
1421, 302, 303, 381, 387
1422, 302, 381, 380, 387
1423, 303, 381, 387, 388
1424, 303, 387, 309, 388
1425, 303, 309, 310, 388
1426, 303, 310, 304, 388
1427, 303, 304, 382, 388
1428, 303, 382, 381, 388
1429, 304, 382, 388, 389
1430, 304, 388, 310, 389
1431, 304, 310, 311, 389
1432, 304, 311, 305, 389
1433, 304, 305, 383, 389
1434, 304, 383, 382, 389
1435, 305, 383, 389, 390
1436, 305, 389, 311, 390
1437, 305, 311, 312, 390
1438, 305, 312, 306, 390
1439, 305, 306, 384, 390
1440, 305, 384, 383, 390
*Nset, Nset=RING_INNER
1, 2, 3, 4, 5, 6, 7, 8, 9, 10
11, 12, 13, 14, 15, 16, 17, 18, 19, 20
21, 22, 23, 24, 25, 26, 27, 28, 29, 30
31, 32, 33, 34, 35, 36, 37, 38, 39, 40
41, 42, 43, 44, 45, 46, 47, 48, 49, 50
51, 52, 53, 54, 55, 56, 57, 58, 59, 60
61, 62, 63, 64, 65, 66, 67, 68, 69, 70
71, 72, 73, 74, 75, 76, 77, 78
*Nset, Nset=PHI0
1, 2, 3, 4, 5, 6, 79, 80, 81, 82
83, 84, 157, 158, 159, 160, 161, 162, 235, 236
237, 238, 239, 240, 313, 314, 315, 316, 317, 318
*Nset, Nset=PHI1
73, 74, 75, 76, 77, 78, 151, 152, 153, 154
155, 156, 229, 230, 231, 232, 233, 234, 307, 308
309, 310, 311, 312, 385, 386, 387, 388, 389, 390
*Nset, Nset=ZBOT
1, 7, 13, 19, 25, 31, 37, 43, 49, 55
61, 67, 73, 79, 85, 91, 97, 103, 109, 115
121, 127, 133, 139, 145, 151, 157, 163, 169, 175
181, 187, 193, 199, 205, 211, 217, 223, 229, 235
241, 247, 253, 259, 265, 271, 277, 283, 289, 295
301, 307, 313, 319, 325, 331, 337, 343, 349, 355
361, 367, 373, 379, 385
*Material, Name=E635
*Elastic
90500, 0.35
*Plastic
434.7, 0.0000
443.8, 0.0020
467.5, 0.0100
485.6, 0.0200
516.3, 0.0500
543.7, 0.1000
573.9, 0.2000
592.7, 0.3000
617.6, 0.5000
653.4, 1.0000
*Damage Initiation, Criterion=Ductile, Evolution=Displacement, Npoints=2
1.0, 0.03, 0.0, 0.1, 1.5, 0.1
*Solid Section, Elset=RING, Material=E635
*Equation
2
151, 2, 0.923879532511, 151, 1, -0.382683432365
2
152, 2, 0.923879532511, 152, 1, -0.382683432365
2
153, 2, 0.923879532511, 153, 1, -0.382683432365
2
154, 2, 0.923879532511, 154, 1, -0.382683432365
2
155, 2, 0.923879532511, 155, 1, -0.382683432365
2
156, 2, 0.923879532511, 156, 1, -0.382683432365
2
229, 2, 0.923879532511, 229, 1, -0.382683432365
2
230, 2, 0.923879532511, 230, 1, -0.382683432365
2
231, 2, 0.923879532511, 231, 1, -0.382683432365
2
232, 2, 0.923879532511, 232, 1, -0.382683432365
2
233, 2, 0.923879532511, 233, 1, -0.382683432365
2
234, 2, 0.923879532511, 234, 1, -0.382683432365
2
307, 2, 0.923879532511, 307, 1, -0.382683432365
2
308, 2, 0.923879532511, 308, 1, -0.382683432365
2
309, 2, 0.923879532511, 309, 1, -0.382683432365
2
310, 2, 0.923879532511, 310, 1, -0.382683432365
2
311, 2, 0.923879532511, 311, 1, -0.382683432365
2
312, 2, 0.923879532511, 312, 1, -0.382683432365
2
385, 2, 0.923879532511, 385, 1, -0.382683432365
2
386, 2, 0.923879532511, 386, 1, -0.382683432365
2
387, 2, 0.923879532511, 387, 1, -0.382683432365
2
388, 2, 0.923879532511, 388, 1, -0.382683432365
2
389, 2, 0.923879532511, 389, 1, -0.382683432365
2
390, 2, 0.923879532511, 390, 1, -0.382683432365
*Step, Nlgeom, Inc=20000
*Static
0.01, 1., 1e-07, 0.02
*Boundary
PHI0, 2, 2, 0.
ZBOT, 3, 3, 0.
1, 1, 1, 1.500000000
2, 1, 1, 1.500000000
3, 1, 1, 1.500000000
4, 1, 1, 1.500000000
5, 1, 1, 1.500000000
6, 1, 1, 1.500000000
7, 1, 1, 1.499196881
7, 2, 2, 0.049078624
8, 1, 1, 1.499196881
8, 2, 2, 0.049078624
9, 1, 1, 1.499196881
9, 2, 2, 0.049078624
10, 1, 1, 1.499196881
10, 2, 2, 0.049078624
11, 1, 1, 1.499196881
11, 2, 2, 0.049078624
12, 1, 1, 1.499196881
12, 2, 2, 0.049078624
13, 1, 1, 1.496788385
13, 2, 2, 0.098104694
14, 1, 1, 1.496788385
14, 2, 2, 0.098104694
15, 1, 1, 1.496788385
15, 2, 2, 0.098104694
16, 1, 1, 1.496788385
16, 2, 2, 0.098104694
17, 1, 1, 1.496788385
17, 2, 2, 0.098104694
18, 1, 1, 1.496788385
18, 2, 2, 0.098104694
19, 1, 1, 1.492777090
19, 2, 2, 0.147025710
20, 1, 1, 1.492777090
20, 2, 2, 0.147025710
21, 1, 1, 1.492777090
21, 2, 2, 0.147025710
22, 1, 1, 1.492777090
22, 2, 2, 0.147025710
23, 1, 1, 1.492777090
23, 2, 2, 0.147025710
24, 1, 1, 1.492777090
24, 2, 2, 0.147025710
25, 1, 1, 1.487167292
25, 2, 2, 0.195789288
26, 1, 1, 1.487167292
26, 2, 2, 0.195789288
27, 1, 1, 1.487167292
27, 2, 2, 0.195789288
28, 1, 1, 1.487167292
28, 2, 2, 0.195789288
29, 1, 1, 1.487167292
29, 2, 2, 0.195789288
30, 1, 1, 1.487167292
30, 2, 2, 0.195789288
31, 1, 1, 1.479964998
31, 2, 2, 0.244343210
32, 1, 1, 1.479964998
32, 2, 2, 0.244343210
33, 1, 1, 1.479964998
33, 2, 2, 0.244343210
34, 1, 1, 1.479964998
34, 2, 2, 0.244343210
35, 1, 1, 1.479964998
35, 2, 2, 0.244343210
36, 1, 1, 1.479964998
36, 2, 2, 0.244343210
37, 1, 1, 1.471177921
37, 2, 2, 0.292635483
38, 1, 1, 1.471177921
38, 2, 2, 0.292635483
39, 1, 1, 1.471177921
39, 2, 2, 0.292635483
40, 1, 1, 1.471177921
40, 2, 2, 0.292635483
41, 1, 1, 1.471177921
41, 2, 2, 0.292635483
42, 1, 1, 1.471177921
42, 2, 2, 0.292635483
43, 1, 1, 1.460815469
43, 2, 2, 0.340614395
44, 1, 1, 1.460815469
44, 2, 2, 0.340614395
45, 1, 1, 1.460815469
45, 2, 2, 0.340614395
46, 1, 1, 1.460815469
46, 2, 2, 0.340614395
47, 1, 1, 1.460815469
47, 2, 2, 0.340614395
48, 1, 1, 1.460815469
48, 2, 2, 0.340614395
49, 1, 1, 1.448888739
49, 2, 2, 0.388228568
50, 1, 1, 1.448888739
50, 2, 2, 0.388228568
51, 1, 1, 1.448888739
51, 2, 2, 0.388228568
52, 1, 1, 1.448888739
52, 2, 2, 0.388228568
53, 1, 1, 1.448888739
53, 2, 2, 0.388228568
54, 1, 1, 1.448888739
54, 2, 2, 0.388228568
55, 1, 1, 1.435410504
55, 2, 2, 0.435427016
56, 1, 1, 1.435410504
56, 2, 2, 0.435427016
57, 1, 1, 1.435410504
57, 2, 2, 0.435427016
58, 1, 1, 1.435410504
58, 2, 2, 0.435427016
59, 1, 1, 1.435410504
59, 2, 2, 0.435427016
60, 1, 1, 1.435410504
60, 2, 2, 0.435427016
61, 1, 1, 1.420395194
61, 2, 2, 0.482159198
62, 1, 1, 1.420395194
62, 2, 2, 0.482159198
63, 1, 1, 1.420395194
63, 2, 2, 0.482159198
64, 1, 1, 1.420395194
64, 2, 2, 0.482159198
65, 1, 1, 1.420395194
65, 2, 2, 0.482159198
66, 1, 1, 1.420395194
66, 2, 2, 0.482159198
67, 1, 1, 1.403858890
67, 2, 2, 0.528375072
68, 1, 1, 1.403858890
68, 2, 2, 0.528375072
69, 1, 1, 1.403858890
69, 2, 2, 0.528375072
70, 1, 1, 1.403858890
70, 2, 2, 0.528375072
71, 1, 1, 1.403858890
71, 2, 2, 0.528375072
72, 1, 1, 1.403858890
72, 2, 2, 0.528375072
73, 1, 1, 1.385819299
73, 2, 2, 0.574025149
74, 1, 1, 1.385819299
74, 2, 2, 0.574025149
75, 1, 1, 1.385819299
75, 2, 2, 0.574025149
76, 1, 1, 1.385819299
76, 2, 2, 0.574025149
77, 1, 1, 1.385819299
77, 2, 2, 0.574025149
78, 1, 1, 1.385819299
78, 2, 2, 0.574025149
*Output, Frequency=10
*Node File
U, RF
*El File
S, E, PEEQ, SDV
*Node Print, Nset=RING_INNER, Totals=Only
RF
*End Step
